Temas = {Internacional, 
        Nacional, 
        Local, 
        Deporte, 
        Cultura,
        Entretenimiento
        };
    minPaginas = [0, 0, 4, 4, 0, 0];
    maxPaginas = [0, 0, 0, 0, 3, 0];
    promLectores = [0, 0, 0, 5, 0, 0];
    p = 11; 